p cnf 40 170
1 -4 15 0
-3 9 -12 0
4 -20 31 0
-2 5 -18 0
10 -14 22 0
-1 7 -33 0
5 -16 29 0
-6 19 -24 0
8 -25 38 0
-9 11 -35 0
12 -27 30 0
-13 17 -39 0
2 -3 8 0
15 -21 36 0
-18 23 -37 0
14 -28 40 0
-7 26 -32 0
20 -34 4 0
-22 31 -1 0
16 -29 5 0
-24 6 -19 0
25 -38 10 0
-35 9 -11 0
27 -30 12 0
-39 13 -17 0
3 -8 2 0
21 -36 15 0
-23 37 -18 0
28 -40 14 0
-26 32 -7 0
34 -4 20 0
-31 1 -22 0
29 -5 16 0
-6 19 24 0
38 -10 25 0
-9 11 35 0
30 -12 27 0
-13 17 39 0
8 -2 3 0
36 -15 21 0
-18 23 37 0
40 -14 28 0
-7 26 32 0
4 -20 34 0
-1 22 31 0
5 -16 29 0
-6 24 19 0
10 -25 38 0
-11 35 9 0
12 -27 30 0
-17 39 13 0
2 -3 8 0
15 -21 36 0
-23 37 18 0
14 -28 40 0
-26 32 7 0
20 -34 4 0
-22 31 1 0
16 -29 5 0
-24 19 6 0
25 -38 10 0
-35 9 11 0
27 -30 12 0
-39 13 17 0
3 -8 2 0
21 -36 15 0
-37 18 23 0
28 -40 14 0
-32 7 26 0
34 -4 20 0
-31 1 22 0
29 -5 16 0
-19 6 24 0
38 -10 25 0
-11 9 35 0
30 -12 27 0
-13 39 17 0
8 -2 3 0
36 -15 21 0
-18 37 23 0
40 -14 28 0
-7 32 26 0
1 5 -10 0
2 6 -11 0
3 7 -12 0
4 8 -13 0
-1 -5 10 0
-2 -6 11 0
-3 -7 12 0
-4 -8 13 0
15 20 -25 0
16 21 -26 0
17 22 -27 0
18 23 -28 0
-15 -20 25 0
-16 -21 26 0
-17 -22 27 0
-18 -23 28 0
29 33 -37 0
30 34 -38 0
31 35 -39 0
32 36 -40 0
-29 -33 37 0
-30 -34 38 0
-31 -35 39 0
-32 -36 40 0
1 2 3 0
-1 -2 -3 0
4 5 6 0
-4 -5 -6 0
7 8 9 0
-7 -8 -9 0
10 11 12 0
-10 -11 -12 0
13 14 15 0
-13 -14 -15 0
16 17 18 0
-16 -17 -18 0
19 20 21 0
-19 -20 -21 0
22 23 24 0
-22 -23 -24 0
25 26 27 0
-25 -26 -27 0
28 29 30 0
-28 -29 -30 0
31 32 33 0
-31 -32 -33 0
34 35 36 0
-34 -35 -36 0
37 38 39 0
-37 -38 -39 0
40 1 5 0
-40 -1 -5 0
2 8 15 0
-2 -8 -15 0
3 12 22 0
-3 -12 -22 0
6 18 30 0
-6 -18 -30 0
9 24 35 0
-9 -24 -35 0
11 27 38 0
-11 -27 -38 0
14 19 33 0
-14 -19 -33 0
17 25 31 0
-17 -25 -31 0
20 28 36 0
-20 -28 -36 0
23 29 39 0
-23 -29 -39 0
26 32 40 0
-26 -32 -40 0
1 4 7 0
2 5 8 0
3 6 9 0
